Read MPS format model from file dat/rmp/env-diss_5292_15.mps
Reading time = 0.11 seconds
: 5377 rows, 20745 columns, 247103 nonzeros
Gurobi Optimizer version 9.0.0 build v9.0.0rc2 (linux64)
Optimize a model with 5377 rows, 20745 columns and 247103 nonzeros
Model fingerprint: 0xbac4696b
Coefficient statistics:
  Matrix range     [9e-08, 2e+00]
  Objective range  [5e-03, 1e+04]
  Bounds range     [0e+00, 0e+00]
  RHS range        [1e-01, 8e+01]
Ordering time: 0.00s

Barrier statistics:
 AA' NZ     : 6.385e+04
 Factor NZ  : 7.032e+04 (roughly 11 MBytes of memory)
 Factor Ops : 9.300e+05 (less than 1 second per iteration)
 Threads    : 1

                  Objective                Residual
Iter       Primal          Dual         Primal    Dual     Compl     Time
   0   2.11887814e+07  0.00000000e+00  1.06e+05 8.00e+02  9.04e+04     0s
   1   3.78300655e+06 -1.44114069e+07  1.84e+04 1.46e+03  1.65e+04     0s
   2   4.34649026e+05 -1.65792877e+07  1.76e+03 7.67e+02  2.52e+03     0s
   3   9.42033609e+04 -1.33223506e+07  5.51e+01 4.27e+02  9.68e+02     0s
   4   6.80167669e+04 -8.15262690e+05  1.59e-07 1.85e+01  5.50e+01     0s
   5   2.04088248e+04 -1.91810918e+05  2.59e-08 2.86e+00  1.19e+01     0s
   6  -3.23758420e+03 -6.93425778e+04  7.12e-09 6.74e-01  3.52e+00     0s
   7  -1.59488079e+04 -3.37466489e+04  1.65e-09 1.65e-01  9.31e-01     0s
   8  -1.85996575e+04 -2.27443967e+04  7.86e-10 2.02e-02  2.09e-01     0s
   9  -1.95922929e+04 -2.13913466e+04  4.78e-11 4.16e-03  8.85e-02     0s
  10  -1.96901736e+04 -2.12368094e+04  7.55e-11 3.23e-03  7.60e-02     0s
  11  -2.00996787e+04 -2.10364805e+04  1.91e-10 1.77e-03  4.59e-02     0s
  12  -2.03101613e+04 -2.09233844e+04  6.25e-11 1.06e-03  3.00e-02     0s
  13  -2.04127922e+04 -2.08843918e+04  1.14e-10 7.20e-04  2.31e-02     0s
  14  -2.04934104e+04 -2.08497287e+04  1.46e-10 4.17e-04  1.74e-02     0s
  15  -2.05431429e+04 -2.08138211e+04  1.24e-10 1.95e-04  1.31e-02     0s
  16  -2.06082951e+04 -2.07989767e+04  8.73e-11 1.94e-05  9.20e-03     0s
  17  -2.07359686e+04 -2.07939817e+04  1.30e-09 5.41e-06  2.80e-03     0s
  18  -2.07414558e+04 -2.07921144e+04  1.35e-09 2.02e-06  2.44e-03     0s
  19  -2.07848274e+04 -2.07904313e+04  3.22e-09 3.17e-07  2.71e-04     0s
  20  -2.07885247e+04 -2.07888045e+04  2.84e-08 3.07e-09  1.35e-05     0s
  21  -2.07886394e+04 -2.07886532e+04  3.57e-08 7.31e-11  6.70e-07     0s
  22  -2.07886454e+04 -2.07886462e+04  7.79e-09 5.43e-12  3.71e-08     0s
  23  -2.07886455e+04 -2.07886455e+04  1.29e-08 1.82e-12  1.98e-10     0s

Barrier solved model in 23 iterations and 0.30 seconds
Optimal objective -2.07886455e+04

Solve time: 0.301523888
Barrier iterations: 23
